
Gurobi 12.0.2 (win64) logging started Thu Jun  5 10:49:16 2025

Set parameter LogFile to value "C:\Ioana\_uni\honours\slp\algorithm\Main_files\results\others\prox_tubules\Task_010_Sample003_irr_gurobi.log"
Gurobi Optimizer version 12.0.2 build v12.0.2rc0 (win64 - Windows 11.0 (26100.2))

CPU model: Intel(R) Core(TM) Ultra 5 125H, instruction set [SSE2|AVX|AVX2]
Thread count: 14 physical cores, 18 logical processors, using up to 18 threads

Non-default parameters:
TimeLimit  2200

Optimize a model with 47658 rows, 34801 columns and 147848 nonzeros
Model fingerprint: 0xa83766f4
Variable types: 17407 continuous, 17394 integer (17394 binary)
Coefficient statistics:
  Matrix range     [1e-04, 8e+04]
  Objective range  [2e-04, 3e+00]
  Bounds range     [1e+00, 1e+03]
  RHS range        [1e+00, 1e+00]
Presolve removed 31247 rows and 21841 columns
Presolve time: 0.38s
Presolved: 16411 rows, 12960 columns, 54594 nonzeros
Variable types: 6414 continuous, 6546 integer (6546 binary)

Root relaxation: objective 3.365242e-04, 490 iterations, 0.04 seconds (0.03 work units)

    Nodes    |    Current Node    |     Objective Bounds      |     Work
 Expl Unexpl |  Obj  Depth IntInf | Incumbent    BestBd   Gap | It/Node Time

     0     0    0.00034    0    9          -    0.00034      -     -    0s
H    0     0                       0.3365242    0.00034   100%     -    0s
     0     0    0.22339    0    8    0.33652    0.22339  33.6%     -    0s

Explored 1 nodes (727 simplex iterations) in 0.70 seconds (0.64 work units)
Thread count was 18 (of 18 available processors)

Solution count 1: 0.336524 

Optimal solution found (tolerance 1.00e-04)
Best objective 3.365241611189e-01, best bound 3.365073825954e-01, gap 0.0050%
